// INFEASIBLE
// That case test is an infeasible instance, because in an hour there must be 2 nurses
minHours=4;
maxHours=10;
maxConsec=6;
maxPresence=12;
demand=[0 0 1 1 1 0 1 1 1 0 2 0 1 1 0 0 0 0 0 0 0 0 0 0];
nNurses=1;